120
150
37
49
41
72
77
23
67
81
81
22
100
89
31
59
89
50
49
100
46
80
70
85
73
38
65
38
50
100
52
72
38
81
31
75
52
29
69
81
26
61
89
63
50
37
71
46
46
63
41
45
59
49
100
52
98
46
88
72
58
62
33
61
89
37
71
62
93
38
56
89
93
61
56
96
85
65
52
86
62
53
96
50
46
100
42
100
85
65
67
81
100
79
37
57
93
50
49
98
52
81
69
77
73
34
23
62
86
20
38
72
40
70
85
80
52
73
77
89
52
100
